Problem:    
Rows:       256
Columns:    89 (72 integer, 72 binary)
Non-zeros:  924
Status:     INTEGER OPTIMAL
Objective:  value = 68.94631 (MINimum)

   No.   Row name        Activity     Lower bound   Upper bound
------ ------------    ------------- ------------- -------------
     1 r.5                   68.9463             0               
     2 r.6                   38.2116      -1008.22               
     3 r.7                   1092.95             0               
     4 r.8                  -996.447      -1012.24               
     5 r.9                   1092.95             0               
     6 r.10                 -991.786      -1006.73               
     7 r.11                  68.9463             0               
     8 r.12                  52.8841      -1011.79               
     9 r.13                  68.9463             0               
    10 r.14                   49.589      -996.375               
    11 r.15                  1092.95             0               
    12 r.16                 -974.411      -1005.26               
    13 r.17                  68.9463             0               
    14 r.18                  1.21567      -1008.97               
    15 r.19                  1092.95             0               
    16 r.20                 -1008.47      -1009.69               
    17 r.21                  1092.95             0               
    18 r.22                 -1009.06      -1010.27               
    19 r.23                  68.9463             0               
    20 r.24                  35.2127      -1011.77               
    21 r.25                  1092.95             0               
    22 r.26                 -955.054      -990.266               
    23 r.27                  68.9463             0               
    24 r.28                  68.9463      -1004.69               
    25 r.29                  68.9463             0               
    26 r.30                  68.9463       -990.89               
    27 r.31                  1092.95             0               
    28 r.32                 -955.054      -1004.64               
    29 r.33                  1092.95             0               
    30 r.34                 -1022.78      -1022.78               
    31 r.35                  68.9463             0               
    32 r.36                  1.21567      -1015.94               
    33 r.37                        1             1             = 
    34 r.38                        1             1             = 
    35 r.39                        1             1             = 
    36 r.40                        1             1             = 
    37 r.41                        1             1             = 
    38 r.42                        1             1             = 
    39 r.43                        1             1             = 
    40 r.44                        1             1             = 
    41 r.45                     1025             2               
    42 r.46                    -1025         -1025               
    43 r.47                     2045      -1006.73               
    44 r.48                     1025             2               
    45 r.49                    -1025         -1025               
    46 r.50                  2070.04      -1011.79               
    47 r.51                     1024             2               
    48 r.52                    -1024         -1025               
    49 r.53                  2062.38      -996.375               
    50 r.54                        2             2               
    51 r.55                       -2         -1025               
    52 r.56                 -1005.26      -1005.26               
    53 r.57                     1024             2               
    54 r.58                    -1024         -1025               
    55 r.59                     2014      -1008.97               
    56 r.60                        2             2               
    57 r.61                       -2         -1025               
    58 r.62                 -15.3183      -1009.69               
    59 r.63                     1025             2               
    60 r.64                    -1025         -1025               
    61 r.65                  2027.73      -1010.27               
    62 r.66                     1025             2               
    63 r.67                    -1025         -1025               
    64 r.68                  2052.36      -1011.77               
    65 r.69                 -990.266      -990.266               
    66 r.70                  33.7336      -1004.69               
    67 r.71                 -985.902      -990.266               
    68 r.72                  38.0982      -1004.69               
    69 r.73                     1024             2               
    70 r.74                    -1024         -1025               
    71 r.75                  2081.73       -990.89               
    72 r.76                        2             2               
    73 r.77                       -2         -1025               
    74 r.78                 -985.902      -1004.64               
    75 r.79                  36.9959             0               
    76 r.80                  14.5735             0               
    77 r.81                  36.9959             0               
    78 r.82                  14.5735             0               
    79 r.83                     1025             2               
    80 r.84                    -1025         -1025               
    81 r.85                     2051       15.7774               
    82 r.86                     1025             2               
    83 r.87                    -1025         -1025               
    84 r.88                  2025.96       11.7639               
    85 r.89                     1025             2               
    86 r.90                    -1025         -1025               
    87 r.91                  2062.38      -996.375               
    88 r.92                     1025             2               
    89 r.93                    -1025         -1025               
    90 r.94                     2048      -1005.26               
    91 r.95                     1025             2               
    92 r.96                    -1025         -1025               
    93 r.97                     2014      -1008.97               
    94 r.98                     1025             2               
    95 r.99                    -1025         -1025               
    96 r.100                 2013.94      -1009.69               
    97 r.101                       2             2               
    98 r.102                      -2         -1025               
    99 r.103                -20.2697      -1010.27               
   100 r.104                    1024             2               
   101 r.105                   -1024         -1025               
   102 r.106                 2033.62      -1011.77               
   103 r.107                       2             2               
   104 r.108                      -2         -1025               
   105 r.109                -990.266      -990.266               
   106 r.110                    1024             2               
   107 r.111                   -1024         -1025               
   108 r.112                 2067.36      -1004.69               
   109 r.113                 33.7336       -990.89               
   110 r.114                -990.266      -1004.64               
   111 r.115                 19.3573       -990.89               
   112 r.116                -1004.64      -1004.64               
   113 r.117                 13.7274             0               
   114 r.118                 51.6684             0               
   115 r.119                 13.7274             0               
   116 r.120                 51.6684             0               
   117 r.121                    1024             2               
   118 r.122                   -1024         -1025               
   119 r.123                 2036.62       15.7774               
   120 r.124                       2             2               
   121 r.125                      -2         -1025               
   122 r.126                 1001.96       11.7639               
   123 r.127                    1025             2               
   124 r.128                   -1025         -1025               
   125 r.129                 2030.62       17.2708               
   126 r.130                    1025             2               
   127 r.131                   -1025         -1025               
   128 r.132                  2051.3       12.2143               
   129 r.133                 48.3733             0               
   130 r.134                 29.6325             0               
   131 r.135                 34.0591             0               
   132 r.136                 15.3183             0               
   133 r.137                    1025             2               
   134 r.138                   -1025         -1025               
   135 r.139                 2013.35      -1010.27               
   136 r.140                    1025             2               
   137 r.141                   -1025         -1025               
   138 r.142                 2033.62      -1011.77               
   139 r.143                    1025             2               
   140 r.144                   -1025         -1025               
   141 r.145                 2067.36      -990.266               
   142 r.146                    1025             2               
   143 r.147                   -1025         -1025               
   144 r.148                 2067.36      -1004.69               
   145 r.149                 19.3573       -990.89               
   146 r.150                -1004.64      -1004.64               
   147 r.151                 19.3573       -990.89               
   148 r.152                -1004.64      -1004.64               
   149 r.153                 48.3733             0               
   150 r.154                 29.6325             0               
   151 r.155                 48.3733             0               
   152 r.156                 29.6325             0               
   153 r.157                    1024             2               
   154 r.158                   -1024         -1025               
   155 r.159                    2085       15.7774               
   156 r.160                       2             2               
   157 r.161                      -2         -1025               
   158 r.162                 12.0232       11.7639               
   159 r.163                    1025             2               
   160 r.164                   -1025         -1025               
   161 r.165                    2079       17.2708               
   162 r.166                    1025             2               
   163 r.167                   -1025         -1025               
   164 r.168                 2085.35       12.2143               
   165 r.169                    1025             2               
   166 r.170                   -1025         -1025               
   167 r.171                 2061.73      -1010.27               
   168 r.172                    1025             2               
   169 r.173                   -1025         -1025               
   170 r.174                 2067.68      -1011.77               
   171 r.175                    1025             2               
   172 r.176                   -1025         -1025               
   173 r.177                 2115.73      -990.266               
   174 r.178                    1025             2               
   175 r.179                   -1025         -1025               
   176 r.180                 2101.42      -1004.69               
   177 r.181                 67.7306       -990.89               
   178 r.182                -956.269      -1004.64               
   179 r.183                 53.4164       -990.89               
   180 r.184                -970.584      -1004.64               
   181 r.185                       0             0               
   182 r.186                       0             0               
   183 r.187                       0             0               
   184 r.188                       0             0               
   185 r.189                    1025             2               
   186 r.190                   -1025         -1025               
   187 r.191                 2071.27       15.7774               
   188 r.192                    1025             2               
   189 r.193                   -1025         -1025               
   190 r.194                 2040.34       11.7639               
   191 r.195                       2             2               
   192 r.196                      -2         -1025               
   193 r.197                 17.2708       17.2708               
   194 r.198                    1024             2               
   195 r.199                   -1024         -1025               
   196 r.200                 2065.67       12.2143               
   197 r.201                    1025             2               
   198 r.202                   -1025         -1025               
   199 r.203                 2082.65        27.625               
   200 r.204                    1025             2               
   201 r.205                   -1025         -1025               
   202 r.206                 2062.38       18.7409               
   203 r.207                    1025             2               
   204 r.208                   -1025         -1025               
   205 r.209                 2034.27       15.0274               
   206 r.210                    1025             2               
   207 r.211                   -1025         -1025               
   208 r.212                 2028.32       14.3142               
   209 r.213                -969.997      -990.266               
   210 r.214                 54.0033      -1004.69               
   211 r.215                -990.266      -990.266               
   212 r.216                 33.7336      -1004.69               
   213 r.217                 54.0033       -990.89               
   214 r.218                -969.997      -1004.64               
   215 r.219                 33.7336       -990.89               
   216 r.220                -990.266      -1004.64               
   217 r.221                       0             0               
   218 r.222                 33.9971             0               
   219 r.223                       0             0               
   220 r.224                 33.9971             0               
   221 r.225                       2             2               
   222 r.226                      -2         -1025               
   223 r.227                 987.268       17.2708               
   224 r.228                    1024             2               
   225 r.229                   -1024         -1025               
   226 r.230                 2031.94       12.2143               
   227 r.231                    1025             2               
   228 r.232                   -1025         -1025               
   229 r.233                 2028.64        27.625               
   230 r.234                    1025             2               
   231 r.235                   -1025         -1025               
   232 r.236                 2028.64       18.7409               
   233 r.237                    1025             2               
   234 r.238                   -1025         -1025               
   235 r.239                 1980.27       15.0274               
   236 r.240                    1025             2               
   237 r.241                   -1025         -1025               
   238 r.242                 1994.58       14.3142               
   239 r.243                    1025             2               
   240 r.244                   -1025         -1025               
   241 r.245                    2048       -990.89               
   242 r.246                    1025             2               
   243 r.247                   -1025         -1025               
   244 r.248                    2048      -1004.64               
   245 r.249                    1024             2               
   246 r.250                   -1024         -1025               
   247 r.251                 2017.27       15.7774               
   248 r.252                       2             2               
   249 r.253                      -2         -1025               
   250 r.254                 982.607       11.7639               
   251 r.255                    1025             2               
   252 r.256                   -1025         -1025               
   253 r.257                    2048       33.7336               
   254 r.258                    1025             2               
   255 r.259                   -1025         -1025               
   256 r.260                    2048       19.3079               

   No. Column name       Activity     Lower bound   Upper bound
------ ------------    ------------- ------------- -------------
     1 tt                    68.9463             0               
     2 s_1_1        *              0             0             1 
     3 t_1_1                 33.7336             0               
     4 s_1_6        *              1             0             1 
     5 s_2_1        *              1             0             1 
     6 t_2_1                 38.0982             0               
     7 s_2_6        *              0             0             1 
     8 s_1_2        *              1             0             1 
     9 t_1_2                 33.7336             0               
    10 s_1_7        *              0             0             1 
    11 s_2_2        *              0             0             1 
    12 t_2_2                 19.3573             0               
    13 s_2_7        *              1             0             1 
    14 s_1_3        *              0             0             1 
    15 t_1_3                 19.3573             0               
    16 s_2_3        *              1             0             1 
    17 t_2_3                 19.3573             0               
    18 s_1_4        *              0             0             1 
    19 t_1_4                 67.7306             0               
    20 s_2_4        *              1             0             1 
    21 t_2_4                 53.4164             0               
    22 s_1_5        *              1             0             1 
    23 t_1_5                 54.0033             0               
    24 s_2_5        *              0             0             1 
    25 t_2_5                 33.7336             0               
    26 t_1_6                       0             0               
    27 t_2_6                       0             0               
    28 t_1_7                       0             0               
    29 t_2_7                       0             0               
    30 s_1_8        *              1             0             1 
    31 t_1_8                 67.7306             0               
    32 s_2_8        *              0             0             1 
    33 t_2_8                 67.7306             0               
    34 r_1_1_2      *              1             0             1 
    35 u_1_1_2      *              0             0             1 
    36 r_2_1_2      *              1             0             1 
    37 u_2_1_2      *              0             0             1 
    38 r_1_1_3      *              1             0             1 
    39 u_1_1_3      *              0             0             1 
    40 r_2_1_3      *              0             0             1 
    41 u_2_1_3      *              1             0             1 
    42 r_1_1_4      *              1             0             1 
    43 u_1_1_4      *              0             0             1 
    44 r_2_1_4      *              0             0             1 
    45 u_2_1_4      *              0             0             1 
    46 r_1_1_5      *              1             0             1 
    47 u_1_1_5      *              0             0             1 
    48 r_2_1_5      *              1             0             1 
    49 u_2_1_5      *              0             0             1 
    50 r_1_1_7      *              1             0             1 
    51 u_1_1_7      *              0             0             1 
    52 r_2_1_7      *              0             0             1 
    53 u_2_1_7      *              1             0             1 
    54 r_1_2_3      *              1             0             1 
    55 u_1_2_3      *              0             0             1 
    56 r_2_2_3      *              1             0             1 
    57 u_2_2_3      *              0             0             1 
    58 r_1_2_4      *              1             0             1 
    59 u_1_2_4      *              0             0             1 
    60 r_2_2_4      *              1             0             1 
    61 u_2_2_4      *              0             0             1 
    62 r_1_2_5      *              0             0             1 
    63 u_1_2_5      *              0             0             1 
    64 r_2_2_5      *              1             0             1 
    65 u_2_2_5      *              0             0             1 
    66 r_1_2_6      *              0             0             1 
    67 u_1_2_6      *              1             0             1 
    68 r_2_2_6      *              1             0             1 
    69 u_2_2_6      *              0             0             1 
    70 r_1_3_5      *              1             0             1 
    71 u_1_3_5      *              0             0             1 
    72 r_2_3_5      *              1             0             1 
    73 u_2_3_5      *              0             0             1 
    74 r_1_3_6      *              1             0             1 
    75 u_1_3_6      *              0             0             1 
    76 r_2_3_6      *              1             0             1 
    77 u_2_3_6      *              0             0             1 
    78 r_1_4_5      *              1             0             1 
    79 u_1_4_5      *              0             0             1 
    80 r_2_4_5      *              1             0             1 
    81 u_2_4_5      *              0             0             1 
    82 r_1_4_6      *              1             0             1 
    83 u_1_4_6      *              0             0             1 
    84 r_2_4_6      *              1             0             1 
    85 u_2_4_6      *              0             0             1 
    86 r_1_6_7      *              1             0             1 
    87 u_1_6_7      *              0             0             1 
    88 r_2_6_7      *              1             0             1 
    89 u_2_6_7      *              0             0             1 

Integer feasibility conditions:

KKT.PE: max.abs.err = 4.55e-13 on row 46
        max.rel.err = 1.11e-16 on row 232
        High quality

KKT.PB: max.abs.err = 1.14e-13 on row 30
        max.rel.err = 1.94e-16 on row 193
        High quality

End of output
